
set I := 1	2	3	4	5	6	7	8	9	10	11	12	13	14	15	16	17	18	19	20 ;
set J := 1	2	3	4	5	6	7	8	9	10	11	12	13	14	15	16	17	18	19	20 ;
set S := 1	2	3	4	5 ;
set D := 6	7	8	9	10	11	12	13	14	15	16	17	18	19 ;


#Data_deterministic

param Arc :
	1	2	3	4	5	6	7	8	9	10	11	12	13	14	15	16	17	18	19	20 :=
1	0	0	0	0	0	1	1	1	0	0	1	0	0	0	0	0	0	0	0	0
2	0	0	0	0	0	1	1	1	0	0	1	1	0	0	0	0	0	0	0	0
3	0	0	0	0	0	0	1	1	1	0	0	1	0	0	0	0	0	0	0	0
4	0	0	0	0	0	0	0	1	1	1	0	0	1	0	0	0	0	0	0	0
5	0	0	0	0	0	0	0	0	0	1	0	0	0	1	0	0	0	0	0	0
6	0	0	0	0	0	0	0	0	0	0	1	1	0	0	1	1	0	0	0	0
7	0	0	0	0	0	0	0	0	0	0	1	1	1	0	0	0	0	0	0	0
8	0	0	0	0	0	0	0	0	0	0	0	1	1	0	0	1	1	0	0	0
9	0	0	0	0	0	0	0	0	0	0	0	0	1	1	0	0	0	1	0	0
10	0	0	0	0	0	0	0	0	0	0	0	0	0	1	0	0	0	0	1	0
11	0	0	0	0	0	0	0	0	0	0	0	0	0	0	1	1	0	0	0	0
12	0	0	0	0	0	0	0	0	0	0	0	0	0	0	1	1	1	0	0	0
13	0	0	0	0	0	0	0	0	0	0	0	0	0	0	0	1	1	1	0	0
14	0	0	0	0	0	0	0	0	0	0	0	0	0	0	0	0	1	1	1	0
15	0	0	0	0	0	0	0	0	0	0	0	0	0	0	0	0	0	0	0	1
16	0	0	0	0	0	0	0	0	0	0	0	0	0	0	0	0	0	0	0	1
17	0	0	0	0	0	0	0	0	0	0	0	0	0	0	0	0	0	0	0	1
18	0	0	0	0	0	0	0	0	0	0	0	0	0	0	0	0	0	0	0	1
19	0	0	0	0	0	0	0	0	0	0	0	0	0	0	0	0	0	0	0	1
20	0	0	0	0	0	0	0	0	0	0	0	0	0	0	0	0	0	0	0	0 ;


param Rev :
	1	2	3	4	5	6	7	8	9	10	11	12	13	14	15	16	17	18	19	20 :=
1	0	0	0	0	0	211	243	268	0	0	327	0	0	0	0	0	0	0	0	0
2	0	0	0	0	0	204	190	225	0	0	301	356	0	0	0	0	0	0	0	0
3	0	0	0	0	0	0	198	261	255	0	0	343	0	0	0	0	0	0	0	0
4	0	0	0	0	0	0	0	265	161	264	0	0	360	0	0	0	0	0	0	0
5	0	0	0	0	0	0	0	0	0	267	0	0	0	348	0	0	0	0	0	0
6	0	0	0	0	0	0	0	0	0	0	146	188	0	0	330	352	0	0	0	0
7	0	0	0	0	0	0	0	0	0	0	225	177	348	0	0	0	0	0	0	0
8	0	0	0	0	0	0	0	0	0	0	0	148	284	0	0	312	332	0	0	0
9	0	0	0	0	0	0	0	0	0	0	0	0	317	329	0	0	0	367	0	0
10	0	0	0	0	0	0	0	0	0	0	0	0	0	214	0	0	0	0	326	0
11	0	0	0	0	0	0	0	0	0	0	0	0	0	0	263	285	0	0	0	0
12	0	0	0	0	0	0	0	0	0	0	0	0	0	0	281	242	301	0	0	0
13	0	0	0	0	0	0	0	0	0	0	0	0	0	0	0	277	168	175	0	0
14	0	0	0	0	0	0	0	0	0	0	0	0	0	0	0	0	273	252	252	0
15	0	0	0	0	0	0	0	0	0	0	0	0	0	0	0	0	0	0	0	0
16	0	0	0	0	0	0	0	0	0	0	0	0	0	0	0	0	0	0	0	0
17	0	0	0	0	0	0	0	0	0	0	0	0	0	0	0	0	0	0	0	0
18	0	0	0	0	0	0	0	0	0	0	0	0	0	0	0	0	0	0	0	0
19	0	0	0	0	0	0	0	0	0	0	0	0	0	0	0	0	0	0	0	0
20	0	0	0	0	0	0	0	0	0	0	0	0	0	0	0	0	0	0	0	0 ;


param Cost:
	1	2	3	4	5	6	7	8	9	10	11	12	13	14	15	16	17	18	19	20 :=
1	0	0	0	0	0	67	70	70	0	0	81	0	0	0	0	0	0	0	0	0
2	0	0	0	0	0	73	63	69	0	0	75	95	0	0	0	0	0	0	0	0
3	0	0	0	0	0	0	66	80	73	0	0	85	0	0	0	0	0	0	0	0
4	0	0	0	0	0	0	0	76	60	78	0	0	105	0	0	0	0	0	0	0
5	0	0	0	0	0	0	0	0	0	78	0	0	0	86	0	0	0	0	0	0
6	0	0	0	0	0	0	0	0	0	0	54	61	0	0	86	93	0	0	0	0
7	0	0	0	0	0	0	0	0	0	0	74	63	91	0	0	0	0	0	0	0
8	0	0	0	0	0	0	0	0	0	0	0	51	75	0	0	76	83	0	0	0
9	0	0	0	0	0	0	0	0	0	0	0	0	76	81	0	0	0	103	0	0
10	0	0	0	0	0	0	0	0	0	0	0	0	0	65	0	0	0	0	78	0
11	0	0	0	0	0	0	0	0	0	0	0	0	0	0	93	98	0	0	0	0
12	0	0	0	0	0	0	0	0	0	0	0	0	0	0	99	87	108	0	0	0
13	0	0	0	0	0	0	0	0	0	0	0	0	0	0	0	93	77	78	0	0
14	0	0	0	0	0	0	0	0	0	0	0	0	0	0	0	0	94	87	88	0
15	0	0	0	0	0	0	0	0	0	0	0	0	0	0	0	0	0	0	0	0
16	0	0	0	0	0	0	0	0	0	0	0	0	0	0	0	0	0	0	0	0
17	0	0	0	0	0	0	0	0	0	0	0	0	0	0	0	0	0	0	0	0
18	0	0	0	0	0	0	0	0	0	0	0	0	0	0	0	0	0	0	0	0
19	0	0	0	0	0	0	0	0	0	0	0	0	0	0	0	0	0	0	0	0
20	0	0	0	0	0	0	0	0	0	0	0	0	0	0	0	0	0	0	0	0 ;

param B := 51;

#Data_stochastic

#Demand435
param ArcDemand default 0.0 :=
1 11 0
1 6 4
1 7 2
1 8 1
2 11 3
2 6 0
2 12 2
2 7 1
2 8 2
3 7 2
3 12 2
3 8 3
3 9 3
4 8 2
4 13 2
4 9 2
4 10 4
5 14 2
5 10 2
6 11 2
6 15 0
6 16 1
6 12 2
7 11 0
7 12 1
7 13 3
8 12 4
8 16 1
8 17 4
8 13 0
9 13 2
9 18 1
9 14 1
10 14 3
10 19 2
11 15 0
11 16 3
12 15 3
12 16 2
12 17 1
13 16 0
13 17 0
13 18 1
14 17 1
14 18 2
14 19 0
;